W=7;
H=7;

MAX_TIME=40;
MAX_TRACKS=28;

TARGET=(7,7);

TRAINS=[(1,1,RIGHT),(3,1,RIGHT),(5,1,RIGHT),(7,1,RIGHT)];
DECOYS=[];

INIT_POS=[
(1,1,STRAIGHT_RL),
(1,4,STRAIGHT_RL),
(2,4,ROCK),
(3,1,STRAIGHT_RL),
(3,4,STRAIGHT_RL),
(3,6,ESWITCH_T_D_R),
(4,4,ROCK),
(4,7,ESWITCH_D_T_L),
(5,1,STRAIGHT_RL),
(5,4,STRAIGHT_RL),
(5,6,ESWITCH_T_D_R),
(6,4,ROCK),
(7,1,STRAIGHT_RL),
(7,4,STRAIGHT_RL),
(7,7,STRAIGHT_RL),
];
TUNNEL_PAIRS=[];

GATES=[];
ACTIVATIONS=[];

DSWITCHES=[];
STATIONS=[
  (1,4,4),
  (3,4,3),
  (5,4,2),
  (7,4,1),
];

SEMAPHORE_SUPPLY=0;
